CPXPARAM_TimeLimit                               3600
CPXPARAM_Read_DataCheck                          1
CPXPARAM_MIP_Limits_Solutions                    1
Tried aggregator 1 time.
MIP Presolve eliminated 2500 rows and 0 columns.
MIP Presolve modified 4381 coefficients.
Reduced MIP has 169380 rows, 54451 columns, and 612024 nonzeros.
Reduced MIP has 2850 binaries, 0 generals, 0 SOSs, and 0 indicators.
Presolve time = 0.15 sec. (225.47 ticks)
Found incumbent of value 11372.000000 after 0.30 sec. (397.81 ticks)

Root node processing (before b&c):
  Real time             =    0.30 sec. (400.47 ticks)
Parallel b&c, 8 threads:
  Real time             =    0.00 sec. (0.00 ticks)
  Sync time (average)   =    0.00 sec.
  Wait time (average)   =    0.00 sec.
                          ------------
Total (root+branch&cut) =    0.30 sec. (400.47 ticks)
